NAME: instance_1314
TYPE: TSP
DIMENSION: 20
EDGE_WEIGHT_TYPE: EUC_2D
NODE_COORD_SECTION
0 43.03 17.29
1 9.06 27.53
2 44.39 47.25
3 39.68 77.94
4 71.91 62.72
5 0.08 5.55
6 99.99 63.19
7 5.82 56.34
8 13.23 72.32
9 7.63 69.50
10 10.34 64.22
11 75.10 35.09
12 84.84 4.00
13 32.53 58.39
14 46.88 69.95
15 12.13 77.98
16 42.07 30.73
17 3.01 46.73
18 61.60 50.88
19 73.48 58.43
EOF
